Minimize
	value: tt

Subject to
tt + 1000 s_1_1 > 0.0
tt - t_1_1 - 1000.000000 s_1_1  > -990.416800
tt + 1000 s_2_1 > 0.0
tt - t_2_1 - 1000.000000 s_2_1  > -991.847857
tt + 1000 s_1_2 > 0.0
tt - t_1_2 - 1003.907488 s_1_2  + 3.907488 s_1_7  > -992.058500
tt + 1000 s_2_2 > 0.0
tt - t_2_2 - 1004.049247 s_2_2  + 4.049247 s_2_7  > -993.713899
tt + 1000 s_1_3 > 0.0
tt - t_1_3 - 1003.907488 s_1_3  + 3.907488 s_1_7  > -992.408400
tt + 1000 s_2_3 > 0.0
tt - t_2_3 - 1004.049247 s_2_3  + 4.049247 s_2_7  > -992.821928
tt + 1000 s_1_4 > 0.0
tt - t_1_4 - 1005.480483 s_1_4  + 1.572995 s_1_3  + 3.907488 s_1_7  > -995.615856
tt + 1000 s_2_4 > 0.0
tt - t_2_4 - 1005.160718 s_2_4  + 1.111471 s_2_3  + 4.049247 s_2_7  > -995.079222
tt + 1000 s_1_5 > 0.0
tt - t_1_5 - 1003.907488 s_1_5  + 3.907488 s_1_7  > -992.464200
tt + 1000 s_2_5 > 0.0
tt - t_2_5 - 1004.049247 s_2_5  + 4.049247 s_2_7  > -992.769413
tt + 1000 s_1_6 > 0.0
tt - t_1_6 - 1007.864977 s_1_6  + 1.572995 s_1_1  + 1.572995 s_1_2  + 1.572995 s_1_3  + 1.572995 s_1_4  + 1.572995 s_1_5  > -997.774000
tt + 1000 s_2_6 > 0.0
tt - t_2_6 - 1005.557354 s_2_6  + 1.111471 s_2_1  + 1.111471 s_2_2  + 1.111471 s_2_3  + 1.111471 s_2_4  + 1.111471 s_2_5  > -982.097333
tt + 1000 s_1_7 > 0.0
tt - t_1_7 - 1000.000000 s_1_7  > -992.372700
tt + 1000 s_2_7 > 0.0
tt - t_2_7 - 1000.000000 s_2_7  > -997.500125
s_1_1 + s_2_1 = 1
s_1_2 + s_2_2 = 1
s_1_3 + s_2_3 = 1
s_1_4 + s_2_4 = 1
s_1_5 + s_2_5 = 1
s_1_6 + s_2_6 = 1
s_1_7 + s_2_7 = 1
s_1_1 + s_1_2 + 1000 r_1_1_2 >= 2
- s_1_1 - s_1_2 - 1000 r_1_1_2 >= -1001
t_1_1 - t_1_2 - 1000.000000 u_1_1_2 - 3.907488 s_1_2  + 3.907488 s_1_7  + 2000.000000 r_1_1_2 > -992.058500
s_2_1 + s_2_2 + 1000 r_2_1_2 >= 2
- s_2_1 - s_2_2 - 1000 r_2_1_2 >= -1001
t_2_1 - t_2_2 - 1000.000000 u_2_1_2 - 4.049247 s_2_2  + 4.049247 s_2_7  + 2000.000000 r_2_1_2 > -993.713899
s_1_1 + s_1_3 + 1000 r_1_1_3 >= 2
- s_1_1 - s_1_3 - 1000 r_1_1_3 >= -1001
t_1_1 - t_1_3 - 1000.000000 u_1_1_3 - 3.907488 s_1_3  + 3.907488 s_1_7  + 2000.000000 r_1_1_3 > -992.408400
s_2_1 + s_2_3 + 1000 r_2_1_3 >= 2
- s_2_1 - s_2_3 - 1000 r_2_1_3 >= -1001
t_2_1 - t_2_3 - 1000.000000 u_2_1_3 - 4.049247 s_2_3  + 4.049247 s_2_7  + 2000.000000 r_2_1_3 > -992.821928
s_1_1 + s_1_4 + 1000 r_1_1_4 >= 2
- s_1_1 - s_1_4 - 1000 r_1_1_4 >= -1001
t_1_1 - t_1_4 - 1000.000000 u_1_1_4 - 5.480483 s_1_4  + 1.572995 s_1_3  + 3.907488 s_1_7  + 2000.000000 r_1_1_4 > -995.615856
s_2_1 + s_2_4 + 1000 r_2_1_4 >= 2
- s_2_1 - s_2_4 - 1000 r_2_1_4 >= -1001
t_2_1 - t_2_4 - 1000.000000 u_2_1_4 - 5.160718 s_2_4  + 1.111471 s_2_3  + 4.049247 s_2_7  + 2000.000000 r_2_1_4 > -995.079222
s_1_1 + s_1_5 + 1000 r_1_1_5 >= 2
- s_1_1 - s_1_5 - 1000 r_1_1_5 >= -1001
t_1_1 - t_1_5 - 1000.000000 u_1_1_5 - 3.907488 s_1_5  + 3.907488 s_1_7  + 2000.000000 r_1_1_5 > -992.464200
s_2_1 + s_2_5 + 1000 r_2_1_5 >= 2
- s_2_1 - s_2_5 - 1000 r_2_1_5 >= -1001
t_2_1 - t_2_5 - 1000.000000 u_2_1_5 - 4.049247 s_2_5  + 4.049247 s_2_7  + 2000.000000 r_2_1_5 > -992.769413
t_1_6 - t_1_1 - 1000.000000 s_1_1  > -990.416800
t_1_6 - t_2_1 - 1000.000000 s_2_1  > -991.847857
t_2_6 - t_1_1 - 1000.000000 s_1_1  > -990.416800
t_2_6 - t_2_1 - 1000.000000 s_2_1  > -991.847857
s_1_1 + s_1_7 + 1000 r_1_1_7 >= 2
- s_1_1 - s_1_7 - 1000 r_1_1_7 >= -1001
t_1_1 - t_1_7 - 1000.000000 u_1_1_7 - 0.000000 s_1_7  + 2000.000000 r_1_1_7 > -992.372700
s_2_1 + s_2_7 + 1000 r_2_1_7 >= 2
- s_2_1 - s_2_7 - 1000 r_2_1_7 >= -1001
t_2_1 - t_2_7 - 1000.000000 u_2_1_7 - 0.000000 s_2_7  + 2000.000000 r_2_1_7 > -997.500125
s_1_2 + s_1_1 + 1000 r_1_1_2 >= 2
- s_1_2 - s_1_1 - 1000 r_1_1_2 >= -1001
t_1_2 - t_1_1 + 1000.000000 u_1_1_2 - 0.000000 s_1_1  + 2000.000000 r_1_1_2 > 9.583200
s_2_2 + s_2_1 + 1000 r_2_1_2 >= 2
- s_2_2 - s_2_1 - 1000 r_2_1_2 >= -1001
t_2_2 - t_2_1 + 1000.000000 u_2_1_2 - 0.000000 s_2_1  + 2000.000000 r_2_1_2 > 8.152143
s_1_2 + s_1_3 + 1000 r_1_2_3 >= 2
- s_1_2 - s_1_3 - 1000 r_1_2_3 >= -1001
t_1_2 - t_1_3 - 1000.000000 u_1_2_3 - 3.907488 s_1_3  + 3.907488 s_1_7  + 2000.000000 r_1_2_3 > -992.408400
s_2_2 + s_2_3 + 1000 r_2_2_3 >= 2
- s_2_2 - s_2_3 - 1000 r_2_2_3 >= -1001
t_2_2 - t_2_3 - 1000.000000 u_2_2_3 - 4.049247 s_2_3  + 4.049247 s_2_7  + 2000.000000 r_2_2_3 > -992.821928
s_1_2 + s_1_4 + 1000 r_1_2_4 >= 2
- s_1_2 - s_1_4 - 1000 r_1_2_4 >= -1001
t_1_2 - t_1_4 - 1000.000000 u_1_2_4 - 5.480483 s_1_4  + 1.572995 s_1_3  + 3.907488 s_1_7  + 2000.000000 r_1_2_4 > -995.615856
s_2_2 + s_2_4 + 1000 r_2_2_4 >= 2
- s_2_2 - s_2_4 - 1000 r_2_2_4 >= -1001
t_2_2 - t_2_4 - 1000.000000 u_2_2_4 - 5.160718 s_2_4  + 1.111471 s_2_3  + 4.049247 s_2_7  + 2000.000000 r_2_2_4 > -995.079222
s_1_2 + s_1_5 + 1000 r_1_2_5 >= 2
- s_1_2 - s_1_5 - 1000 r_1_2_5 >= -1001
t_1_2 - t_1_5 - 1000.000000 u_1_2_5 - 3.907488 s_1_5  + 3.907488 s_1_7  + 2000.000000 r_1_2_5 > -992.464200
s_2_2 + s_2_5 + 1000 r_2_2_5 >= 2
- s_2_2 - s_2_5 - 1000 r_2_2_5 >= -1001
t_2_2 - t_2_5 - 1000.000000 u_2_2_5 - 4.049247 s_2_5  + 4.049247 s_2_7  + 2000.000000 r_2_2_5 > -992.769413
t_1_6 - t_1_2 - 1003.907488 s_1_2  + 3.907488 s_1_7  > -992.058500
t_1_6 - t_2_2 - 1004.049247 s_2_2  + 4.049247 s_2_7  > -993.713899
t_2_6 - t_1_2 - 1003.907488 s_1_2  + 3.907488 s_1_7  > -992.058500
t_2_6 - t_2_2 - 1004.049247 s_2_2  + 4.049247 s_2_7  > -993.713899
t_1_2 - t_1_7 - 1000.000000 s_1_7  > -992.372700
t_1_2 - t_2_7 - 1000.000000 s_2_7  > -997.500125
t_2_2 - t_1_7 - 1000.000000 s_1_7  > -992.372700
t_2_2 - t_2_7 - 1000.000000 s_2_7  > -997.500125
s_1_3 + s_1_1 + 1000 r_1_1_3 >= 2
- s_1_3 - s_1_1 - 1000 r_1_1_3 >= -1001
t_1_3 - t_1_1 + 1000.000000 u_1_1_3 - 0.000000 s_1_1  + 2000.000000 r_1_1_3 > 9.583200
s_2_3 + s_2_1 + 1000 r_2_1_3 >= 2
- s_2_3 - s_2_1 - 1000 r_2_1_3 >= -1001
t_2_3 - t_2_1 + 1000.000000 u_2_1_3 - 0.000000 s_2_1  + 2000.000000 r_2_1_3 > 8.152143
s_1_3 + s_1_2 + 1000 r_1_2_3 >= 2
- s_1_3 - s_1_2 - 1000 r_1_2_3 >= -1001
t_1_3 - t_1_2 + 1000.000000 u_1_2_3 - 3.907488 s_1_2  + 3.907488 s_1_7  + 2000.000000 r_1_2_3 > 7.941500
s_2_3 + s_2_2 + 1000 r_2_2_3 >= 2
- s_2_3 - s_2_2 - 1000 r_2_2_3 >= -1001
t_2_3 - t_2_2 + 1000.000000 u_2_2_3 - 4.049247 s_2_2  + 4.049247 s_2_7  + 2000.000000 r_2_2_3 > 6.286101
t_1_4 - t_1_3 - 1003.907488 s_1_3  + 3.907488 s_1_7  > -992.408400
t_1_4 - t_2_3 - 1004.049247 s_2_3  + 4.049247 s_2_7  > -992.821928
t_2_4 - t_1_3 - 1003.907488 s_1_3  + 3.907488 s_1_7  > -992.408400
t_2_4 - t_2_3 - 1004.049247 s_2_3  + 4.049247 s_2_7  > -992.821928
s_1_3 + s_1_5 + 1000 r_1_3_5 >= 2
- s_1_3 - s_1_5 - 1000 r_1_3_5 >= -1001
t_1_3 - t_1_5 - 1000.000000 u_1_3_5 - 3.907488 s_1_5  + 3.907488 s_1_7  + 2000.000000 r_1_3_5 > -992.464200
s_2_3 + s_2_5 + 1000 r_2_3_5 >= 2
- s_2_3 - s_2_5 - 1000 r_2_3_5 >= -1001
t_2_3 - t_2_5 - 1000.000000 u_2_3_5 - 4.049247 s_2_5  + 4.049247 s_2_7  + 2000.000000 r_2_3_5 > -992.769413
t_1_6 - t_1_3 - 1003.907488 s_1_3  + 3.907488 s_1_7  > -992.408400
t_1_6 - t_2_3 - 1004.049247 s_2_3  + 4.049247 s_2_7  > -992.821928
t_2_6 - t_1_3 - 1003.907488 s_1_3  + 3.907488 s_1_7  > -992.408400
t_2_6 - t_2_3 - 1004.049247 s_2_3  + 4.049247 s_2_7  > -992.821928
t_1_3 - t_1_7 - 1000.000000 s_1_7  > -992.372700
t_1_3 - t_2_7 - 1000.000000 s_2_7  > -997.500125
t_2_3 - t_1_7 - 1000.000000 s_1_7  > -992.372700
t_2_3 - t_2_7 - 1000.000000 s_2_7  > -997.500125
s_1_4 + s_1_1 + 1000 r_1_1_4 >= 2
- s_1_4 - s_1_1 - 1000 r_1_1_4 >= -1001
t_1_4 - t_1_1 + 1000.000000 u_1_1_4 - 0.000000 s_1_1  + 2000.000000 r_1_1_4 > 9.583200
s_2_4 + s_2_1 + 1000 r_2_1_4 >= 2
- s_2_4 - s_2_1 - 1000 r_2_1_4 >= -1001
t_2_4 - t_2_1 + 1000.000000 u_2_1_4 - 0.000000 s_2_1  + 2000.000000 r_2_1_4 > 8.152143
s_1_4 + s_1_2 + 1000 r_1_2_4 >= 2
- s_1_4 - s_1_2 - 1000 r_1_2_4 >= -1001
t_1_4 - t_1_2 + 1000.000000 u_1_2_4 - 3.907488 s_1_2  + 3.907488 s_1_7  + 2000.000000 r_1_2_4 > 7.941500
s_2_4 + s_2_2 + 1000 r_2_2_4 >= 2
- s_2_4 - s_2_2 - 1000 r_2_2_4 >= -1001
t_2_4 - t_2_2 + 1000.000000 u_2_2_4 - 4.049247 s_2_2  + 4.049247 s_2_7  + 2000.000000 r_2_2_4 > 6.286101
s_1_4 + s_1_5 + 1000 r_1_4_5 >= 2
- s_1_4 - s_1_5 - 1000 r_1_4_5 >= -1001
t_1_4 - t_1_5 - 1000.000000 u_1_4_5 - 3.907488 s_1_5  + 3.907488 s_1_7  + 2000.000000 r_1_4_5 > -992.464200
s_2_4 + s_2_5 + 1000 r_2_4_5 >= 2
- s_2_4 - s_2_5 - 1000 r_2_4_5 >= -1001
t_2_4 - t_2_5 - 1000.000000 u_2_4_5 - 4.049247 s_2_5  + 4.049247 s_2_7  + 2000.000000 r_2_4_5 > -992.769413
t_1_6 - t_1_4 - 1005.480483 s_1_4  + 1.572995 s_1_3  + 3.907488 s_1_7  > -995.615856
t_1_6 - t_2_4 - 1005.160718 s_2_4  + 1.111471 s_2_3  + 4.049247 s_2_7  > -995.079222
t_2_6 - t_1_4 - 1005.480483 s_1_4  + 1.572995 s_1_3  + 3.907488 s_1_7  > -995.615856
t_2_6 - t_2_4 - 1005.160718 s_2_4  + 1.111471 s_2_3  + 4.049247 s_2_7  > -995.079222
t_1_4 - t_1_7 - 1000.000000 s_1_7  > -992.372700
t_1_4 - t_2_7 - 1000.000000 s_2_7  > -997.500125
t_2_4 - t_1_7 - 1000.000000 s_1_7  > -992.372700
t_2_4 - t_2_7 - 1000.000000 s_2_7  > -997.500125
s_1_5 + s_1_1 + 1000 r_1_1_5 >= 2
- s_1_5 - s_1_1 - 1000 r_1_1_5 >= -1001
t_1_5 - t_1_1 + 1000.000000 u_1_1_5 - 0.000000 s_1_1  + 2000.000000 r_1_1_5 > 9.583200
s_2_5 + s_2_1 + 1000 r_2_1_5 >= 2
- s_2_5 - s_2_1 - 1000 r_2_1_5 >= -1001
t_2_5 - t_2_1 + 1000.000000 u_2_1_5 - 0.000000 s_2_1  + 2000.000000 r_2_1_5 > 8.152143
s_1_5 + s_1_2 + 1000 r_1_2_5 >= 2
- s_1_5 - s_1_2 - 1000 r_1_2_5 >= -1001
t_1_5 - t_1_2 + 1000.000000 u_1_2_5 - 3.907488 s_1_2  + 3.907488 s_1_7  + 2000.000000 r_1_2_5 > 7.941500
s_2_5 + s_2_2 + 1000 r_2_2_5 >= 2
- s_2_5 - s_2_2 - 1000 r_2_2_5 >= -1001
t_2_5 - t_2_2 + 1000.000000 u_2_2_5 - 4.049247 s_2_2  + 4.049247 s_2_7  + 2000.000000 r_2_2_5 > 6.286101
s_1_5 + s_1_3 + 1000 r_1_3_5 >= 2
- s_1_5 - s_1_3 - 1000 r_1_3_5 >= -1001
t_1_5 - t_1_3 + 1000.000000 u_1_3_5 - 3.907488 s_1_3  + 3.907488 s_1_7  + 2000.000000 r_1_3_5 > 7.591600
s_2_5 + s_2_3 + 1000 r_2_3_5 >= 2
- s_2_5 - s_2_3 - 1000 r_2_3_5 >= -1001
t_2_5 - t_2_3 + 1000.000000 u_2_3_5 - 4.049247 s_2_3  + 4.049247 s_2_7  + 2000.000000 r_2_3_5 > 7.178072
s_1_5 + s_1_4 + 1000 r_1_4_5 >= 2
- s_1_5 - s_1_4 - 1000 r_1_4_5 >= -1001
t_1_5 - t_1_4 + 1000.000000 u_1_4_5 - 5.480483 s_1_4  + 1.572995 s_1_3  + 3.907488 s_1_7  + 2000.000000 r_1_4_5 > 4.384144
s_2_5 + s_2_4 + 1000 r_2_4_5 >= 2
- s_2_5 - s_2_4 - 1000 r_2_4_5 >= -1001
t_2_5 - t_2_4 + 1000.000000 u_2_4_5 - 5.160718 s_2_4  + 1.111471 s_2_3  + 4.049247 s_2_7  + 2000.000000 r_2_4_5 > 4.920778
t_1_6 - t_1_5 - 1003.907488 s_1_5  + 3.907488 s_1_7  > -992.464200
t_1_6 - t_2_5 - 1004.049247 s_2_5  + 4.049247 s_2_7  > -992.769413
t_2_6 - t_1_5 - 1003.907488 s_1_5  + 3.907488 s_1_7  > -992.464200
t_2_6 - t_2_5 - 1004.049247 s_2_5  + 4.049247 s_2_7  > -992.769413
t_1_5 - t_1_7 - 1000.000000 s_1_7  > -992.372700
t_1_5 - t_2_7 - 1000.000000 s_2_7  > -997.500125
t_2_5 - t_1_7 - 1000.000000 s_1_7  > -992.372700
t_2_5 - t_2_7 - 1000.000000 s_2_7  > -997.500125
s_1_7 + s_1_1 + 1000 r_1_1_7 >= 2
- s_1_7 - s_1_1 - 1000 r_1_1_7 >= -1001
t_1_7 - t_1_1 + 1000.000000 u_1_1_7 - 0.000000 s_1_1  + 2000.000000 r_1_1_7 > 9.583200
s_2_7 + s_2_1 + 1000 r_2_1_7 >= 2
- s_2_7 - s_2_1 - 1000 r_2_1_7 >= -1001
t_2_7 - t_2_1 + 1000.000000 u_2_1_7 - 0.000000 s_2_1  + 2000.000000 r_2_1_7 > 8.152143
Binary
s_1_1
s_2_1
s_1_2
s_2_2
s_1_3
s_2_3
s_1_4
s_2_4
s_1_5
s_2_5
s_1_6
s_2_6
s_1_7
s_2_7
u_1_1_2
r_1_1_2
u_2_1_2
r_2_1_2
u_1_1_3
r_1_1_3
u_2_1_3
r_2_1_3
u_1_1_4
r_1_1_4
u_2_1_4
r_2_1_4
u_1_1_5
r_1_1_5
u_2_1_5
r_2_1_5
u_1_1_7
r_1_1_7
u_2_1_7
r_2_1_7
u_1_2_3
r_1_2_3
u_2_2_3
r_2_2_3
u_1_2_4
r_1_2_4
u_2_2_4
r_2_2_4
u_1_2_5
r_1_2_5
u_2_2_5
r_2_2_5
u_1_3_5
r_1_3_5
u_2_3_5
r_2_3_5
u_1_4_5
r_1_4_5
u_2_4_5
r_2_4_5

End
